num_offers = 40;
num_halls = 10;
start=[10,29,6,30,4,14,47,7,7,65,49,21,22,61,66,43,11,74,6,58,46,52,67,7,44,53,53,51,3,25,1,72,13,36,30,30,13,29,16,52];
end=[16,37,23,93,60,33,82,80,53,84,90,47,64,75,79,71,88,89,74,92,79,68,87,46,72,79,81,96,83,90,100,99,30,41,87,99,19,58,22,75];
price=[693,853,500,1731,1207,1754,1559,915,4501,1366,2089,958,3783,1170,215,2400,5665,349,1799,2245,1429,757,1741,3139,1941,2061,1306,3883,1640,5588,7289,2112,593,159,3318,4031,664,1991,204,1864];
requirement=[928,212,815,833,743,493,904,461,930,218,306,445,418,381,749,762,264,890,666,683,543,567,528,249,564,802,422,763,558,404,291,575,332,679,527,789,968,350,546,317];
capacity=[554,291,291,530,875,633,462,328,438,214];
